
Gurobi 11.0.3 (mac64[arm], gurobi_cl) logging started Mon Nov  4 11:49:42 2024

Set parameter TimeLimit to value 600
Set parameter NoRelHeurTime to value 600
Set parameter LogFile to value "gurobi.log"
Using license file /Users/sakai/gurobi.lic
Restricted license - for non-production use only - expires 2025-11-24

Gurobi Optimizer version 11.0.3 build v11.0.3rc0 (mac64[arm] - Darwin 22.6.0 22H123)
Copyright (c) 2024, Gurobi Optimization, LLC

Read LP format model from file ../../../miplib2024_submission/instances.20241102/bnn_mnist_rot_8_label1_adversarial_norm_inf.lp
Reading time = 0.10 seconds
: 1876 rows, 1295 columns, 399934 nonzeros

CPU model: Apple M1
Thread count: 8 physical cores, 8 logical processors, using up to 8 threads

Optimize a model with 1876 rows, 1295 columns and 399934 nonzeros
Model fingerprint: 0x298ed0f4
Variable types: 1 continuous, 1294 integer (1294 binary)
Coefficient statistics:
  Matrix range     [1e+00, 2e+03]
  Objective range  [1e+00, 1e+00]
  Bounds range     [1e+00, 1e+00]
  RHS range        [1e+00, 2e+03]
Presolve removed 32 rows and 18 columns
Presolve time: 0.26s
Presolved: 1844 rows, 1277 columns, 393542 nonzeros
Variable types: 0 continuous, 1277 integer (1276 binary)
Found heuristic solution: objective 248.0000000
Starting NoRel heuristic
Elapsed time for NoRel heuristic: 8s (best bound 0)
Found heuristic solution: objective 233.0000000
Found heuristic solution: objective 231.0000000
Elapsed time for NoRel heuristic: 14s (best bound 0)
Found heuristic solution: objective 227.0000000
Found heuristic solution: objective 225.0000000
Found heuristic solution: objective 210.0000000
Found heuristic solution: objective 202.0000000
Found heuristic solution: objective 199.0000000
Found heuristic solution: objective 180.0000000
Found heuristic solution: objective 179.0000000
Found heuristic solution: objective 173.0000000
Found heuristic solution: objective 172.0000000
Found heuristic solution: objective 169.0000000
Found heuristic solution: objective 150.0000000
Found heuristic solution: objective 149.0000000
Found heuristic solution: objective 148.0000000
Found heuristic solution: objective 145.0000000
Elapsed time for NoRel heuristic: 19s (best bound 0)
Found heuristic solution: objective 144.0000000
Found heuristic solution: objective 143.0000000
Found heuristic solution: objective 127.0000000
Found heuristic solution: objective 126.0000000
Found heuristic solution: objective 125.0000000
Found heuristic solution: objective 118.0000000
Found heuristic solution: objective 108.0000000
Found heuristic solution: objective 101.0000000
Found heuristic solution: objective 92.0000000
Found heuristic solution: objective 83.0000000
Found heuristic solution: objective 81.0000000
Elapsed time for NoRel heuristic: 24s (best bound 0)
Found heuristic solution: objective 80.0000000
Found heuristic solution: objective 77.0000000
Found heuristic solution: objective 76.0000000
Found heuristic solution: objective 74.0000000
Found heuristic solution: objective 73.0000000
Found heuristic solution: objective 69.0000000
Found heuristic solution: objective 67.0000000
Found heuristic solution: objective 64.0000000
Found heuristic solution: objective 62.0000000
Found heuristic solution: objective 61.0000000
Found heuristic solution: objective 54.0000000
Elapsed time for NoRel heuristic: 30s (best bound 0)
Found heuristic solution: objective 50.0000000
Found heuristic solution: objective 37.0000000
Found heuristic solution: objective 36.0000000
Found heuristic solution: objective 35.0000000
Found heuristic solution: objective 30.0000000
Found heuristic solution: objective 28.0000000
Found heuristic solution: objective 27.0000000
Found heuristic solution: objective 25.0000000
Found heuristic solution: objective 22.0000000
Found heuristic solution: objective 19.0000000
Found heuristic solution: objective 18.0000000
Found heuristic solution: objective 17.0000000
Found heuristic solution: objective 12.0000000
Found heuristic solution: objective 11.0000000
Elapsed time for NoRel heuristic: 35s (best bound 0)
Found heuristic solution: objective 10.0000000
Found heuristic solution: objective 7.0000000
Found heuristic solution: objective 6.0000000
Found heuristic solution: objective 5.0000000
Found heuristic solution: objective 4.0000000
Found heuristic solution: objective 2.0000000
Elapsed time for NoRel heuristic: 41s (best bound 0)
Found heuristic solution: objective 1.0000000
NoRel heuristic complete

Explored 0 nodes (0 simplex iterations) in 42.60 seconds (25.69 work units)
Thread count was 8 (of 8 available processors)

Solution count 10: 1 2 4 ... 17

Optimal solution found (tolerance 1.00e-04)
Best objective 1.000000000000e+00, best bound 1.000000000000e+00, gap 0.0000%

Wrote result file 'bnn_mnist_rot_8_label1_adversarial_norm_inf.sol'

